750
120 120
1 96 51
2 96 107
3 96 718
4 96 847
5 96 415
6 96 521
7 96 11
8 96 457
9 96 528
10 95 957
11 95 793
12 95 302
13 95 935
14 95 653
15 95 365
16 94 163
17 94 570
18 94 447
19 94 134
20 94 662
21 94 812
22 94 558
23 94 614
24 94 787
25 94 230
26 94 579
27 94 514
28 93 966
29 93 919
30 93 694
31 93 105
32 93 211
33 93 57
34 93 866
35 93 571
36 92 825
37 92 199
38 92 832
39 92 204
40 92 655
41 91 313
42 91 634
43 91 419
44 91 842
45 91 876
46 91 88
47 91 840
48 91 207
49 91 513
50 90 678
51 90 258
52 90 807
53 90 522
54 90 949
55 90 882
56 90 177
57 89 591
58 89 525
59 89 940
60 89 333
61 89 234
62 89 152
63 89 373
64 89 623
65 89 204
66 88 820
67 88 659
68 88 203
69 88 990
70 88 140
71 88 139
72 88 591
73 88 137
74 88 384
75 88 959
76 88 386
77 88 877
78 88 108
79 88 571
80 88 871
81 88 832
82 88 135
83 87 456
84 87 184
85 87 489
86 87 727
87 87 936
88 87 811
89 87 269
90 87 244
91 87 52
92 87 643
93 87 334
94 86 639
95 86 453
96 86 882
97 86 57
98 86 371
99 86 610
100 86 956
101 86 217
102 86 710
103 86 55
104 86 758
105 85 80
106 85 685
107 85 906
108 85 740
109 85 518
110 85 837
111 85 985
112 85 629
113 85 939
114 84 554
115 84 265
116 84 934
117 83 664
118 83 365
119 83 103
120 83 436
121 83 443
122 83 721
123 83 752
124 83 969
125 82 796
126 82 396
127 82 325
128 82 714
129 82 707
130 82 368
131 82 355
132 82 451
133 82 161
134 82 414
135 82 556
136 82 692
137 82 295
138 81 71
139 81 611
140 81 908
141 81 865
142 81 453
143 81 235
144 81 467
145 80 953
146 80 922
147 80 505
148 80 677
149 80 787
150 80 482
151 80 855
152 80 506
153 80 176
154 80 950
155 80 97
156 79 139
157 79 636
158 79 665
159 79 672
160 79 784
161 79 905
162 79 915
163 79 409
164 79 261
165 79 699
166 79 780
167 78 749
168 78 713
169 78 79
170 78 781
171 78 528
172 77 247
173 77 995
174 77 866
175 77 635
176 77 69
177 77 893
178 77 352
179 77 901
180 77 46
181 77 202
182 76 808
183 76 359
184 76 892
185 76 811
186 76 574
187 76 874
188 76 985
189 76 364
190 75 15
191 75 119
192 75 348
193 75 37
194 75 981
195 75 236
196 75 310
197 75 587
198 74 847
199 74 799
200 74 823
201 74 702
202 74 196
203 74 458
204 74 709
205 74 228
206 74 494
207 74 181
208 74 890
209 73 774
210 73 159
211 73 354
212 73 416
213 73 449
214 73 971
215 73 346
216 72 194
217 72 521
218 72 446
219 72 469
220 72 639
221 72 726
222 72 353
223 72 383
224 72 486
225 72 374
226 71 976
227 71 244
228 71 6
229 71 648
230 71 720
231 71 21
232 71 922
233 70 230
234 70 710
235 70 700
236 70 36
237 70 681
238 70 175
239 70 346
240 70 0
241 70 631
242 70 484
243 69 530
244 69 209
245 69 699
246 69 214
247 69 275
248 69 640
249 68 995
250 68 224
251 68 169
252 68 560
253 68 142
254 68 353
255 68 8
256 68 714
257 67 444
258 67 262
259 67 602
260 67 181
261 67 490
262 67 837
263 67 175
264 67 519
265 67 699
266 67 243
267 67 573
268 66 52
269 66 369
270 66 269
271 66 93
272 66 522
273 66 518
274 66 945
275 66 541
276 66 619
277 66 91
278 66 525
279 66 407
280 66 129
281 65 833
282 65 187
283 65 379
284 65 167
285 65 106
286 65 206
287 65 191
288 65 843
289 65 338
290 64 378
291 64 814
292 64 523
293 64 169
294 64 682
295 63 318
296 63 515
297 63 520
298 63 820
299 63 202
300 63 82
301 63 616
302 63 78
303 63 5
304 63 45
305 62 80
306 62 880
307 62 760
308 62 279
309 62 841
310 62 121
311 62 918
312 62 571
313 62 768
314 62 583
315 62 251
316 62 807
317 62 636
318 61 4
319 61 203
320 61 605
321 61 81
322 61 272
323 61 421
324 61 985
325 61 571
326 61 543
327 60 769
328 60 669
329 60 341
330 60 21
331 60 508
332 60 114
333 60 54
334 60 255
335 60 114
336 60 918
337 60 927
338 60 322
339 59 106
340 59 429
341 59 738
342 59 797
343 59 287
344 59 499
345 59 382
346 59 739
347 59 885
348 59 455
349 59 586
350 59 723
351 59 493
352 58 762
353 58 802
354 58 688
355 58 247
356 58 430
357 58 39
358 57 53
359 57 152
360 57 146
361 57 683
362 57 235
363 57 380
364 57 579
365 57 802
366 57 600
367 56 914
368 56 414
369 56 400
370 56 793
371 56 512
372 56 514
373 56 804
374 56 159
375 56 262
376 56 757
377 55 464
378 55 978
379 55 500
380 55 21
381 55 383
382 55 75
383 55 559
384 55 723
385 54 923
386 54 86
387 54 230
388 54 84
389 54 55
390 54 261
391 54 880
392 54 150
393 54 514
394 54 889
395 54 89
396 54 786
397 53 757
398 53 639
399 53 448
400 53 666
401 53 182
402 53 572
403 53 153
404 53 614
405 53 185
406 53 559
407 53 542
408 53 673
409 53 549
410 53 670
411 52 56
412 52 152
413 52 47
414 52 953
415 52 128
416 52 799
417 52 912
418 52 327
419 51 131
420 51 651
421 51 157
422 51 305
423 51 939
424 51 104
425 51 485
426 50 121
427 50 695
428 50 238
429 50 828
430 50 328
431 50 231
432 49 57
433 49 524
434 49 796
435 49 630
436 49 649
437 49 472
438 48 377
439 48 645
440 48 545
441 48 661
442 48 942
443 48 988
444 48 727
445 48 823
446 48 962
447 47 976
448 47 978
449 47 888
450 47 236
451 47 893
452 47 115
453 47 138
454 46 141
455 46 702
456 46 310
457 46 637
458 46 102
459 46 713
460 46 640
461 46 249
462 45 31
463 45 706
464 45 421
465 45 244
466 45 159
467 45 410
468 45 288
469 45 263
470 45 391
471 45 280
472 44 222
473 44 840
474 44 410
475 44 481
476 44 827
477 44 374
478 44 269
479 44 411
480 44 139
481 43 870
482 43 87
483 43 179
484 43 929
485 43 901
486 43 278
487 42 697
488 42 752
489 42 488
490 42 446
491 42 406
492 42 975
493 42 382
494 42 744
495 42 988
496 42 318
497 42 754
498 42 747
499 41 301
500 41 510
501 41 92
502 41 689
503 41 909
504 41 612
505 41 413
506 41 608
507 40 262
508 40 205
509 40 324
510 40 888
511 40 484
512 39 183
513 39 102
514 39 967
515 39 715
516 39 830
517 39 644
518 39 740
519 39 469
520 39 397
521 38 353
522 38 516
523 38 65
524 38 882
525 38 549
526 38 798
527 38 31
528 38 767
529 37 71
530 37 978
531 37 175
532 37 858
533 37 585
534 37 196
535 37 105
536 36 81
537 36 358
538 36 107
539 36 3
540 36 30
541 35 872
542 35 963
543 35 443
544 35 176
545 35 123
546 35 719
547 35 433
548 35 571
549 35 894
550 35 495
551 35 611
552 34 638
553 34 187
554 34 813
555 34 500
556 34 847
557 34 719
558 34 951
559 34 208
560 34 826
561 34 549
562 34 298
563 34 789
564 33 772
565 33 520
566 33 99
567 33 462
568 33 95
569 33 273
570 33 86
571 33 31
572 33 635
573 33 599
574 33 816
575 32 754
576 32 83
577 32 514
578 32 69
579 32 733
580 32 51
581 32 383
582 31 61
583 31 204
584 31 287
585 31 554
586 31 608
587 31 855
588 31 25
589 31 676
590 31 988
591 31 809
592 31 358
593 31 74
594 31 754
595 31 981
596 30 654
597 30 272
598 30 726
599 30 121
600 30 270
601 30 471
602 30 350
603 30 268
604 30 237
605 30 600
606 29 267
607 29 78
608 29 609
609 29 208
610 29 951
611 29 475
612 29 869
613 28 556
614 28 445
615 28 508
616 28 83
617 28 160
618 28 926
619 28 862
620 27 245
621 27 522
622 27 723
623 27 597
624 27 229
625 27 106
626 27 315
627 27 966
628 27 455
629 26 553
630 26 420
631 26 404
632 26 898
633 26 267
634 26 619
635 26 826
636 26 365
637 26 398
638 26 170
639 25 169
640 25 167
641 25 199
642 25 479
643 25 973
644 25 252
645 25 240
646 24 834
647 24 701
648 24 645
649 24 864
650 24 202
651 24 283
652 23 456
653 23 549
654 23 678
655 23 647
656 23 430
657 23 360
658 23 392
659 22 290
660 22 810
661 22 61
662 21 88
663 21 540
664 21 658
665 21 332
666 21 554
667 21 917
668 21 655
669 21 537
670 21 305
671 21 250
672 21 82
673 20 913
674 20 71
675 20 879
676 20 540
677 19 601
678 19 627
679 19 503
680 19 941
681 19 1000
682 19 266
683 19 90
684 19 362
685 19 63
686 19 71
687 18 191
688 18 473
689 18 970
690 18 74
691 18 696
692 17 505
693 17 880
694 17 597
695 17 332
696 17 276
697 17 994
698 17 895
699 17 131
700 17 103
701 17 153
702 17 388
703 17 386
704 16 94
705 16 950
706 16 753
707 16 529
708 16 239
709 16 34
710 16 605
711 16 487
712 16 562
713 16 165
714 16 870
715 16 11
716 15 876
717 15 438
718 15 291
719 15 417
720 15 616
721 15 615
722 15 432
723 15 329
724 15 569
725 15 252
726 15 515
727 15 768
728 15 149
729 15 669
730 14 543
731 14 619
732 14 902
733 14 574
734 14 502
735 14 349
736 14 326
737 14 870
738 14 577
739 13 585
740 13 332
741 13 573
742 13 25
743 13 670
744 13 51
745 13 797
746 12 626
747 12 475
748 12 355
749 12 677
750 12 249
